TESTID          !     >  inlet_M1750_X43
TIME            !     >  0.00000000000 
PRESSURE        !     >  7000000.00000000000 
MFLOW           !     >  0.26939157005 
POWER           !     >  188590.57336932572 
HIN             !     >  1214735.37440622738 
WMESH           !     >  0.09865000000 0.09865000000 0.09865000000 0.09865000000 0.09865000000 0.09865000000 0.09865000000 0.09865000000 0.09865000000 0.09865000000 0.09865000000 0.09865000000 0.09865000000 0.09865000000 0.09865000000 0.09865000000 0.09865000000 0.09865000000 0.09865000000 0.09865000000 0.09865000000 0.09865000000 0.09865000000 0.09865000000 0.09865000000 0.09865000000 0.09865000000 0.09865000000 0.09865000000 0.09865000000 0.09865000000 0.09865000000 0.09865000000 0.09865000000 0.09865000000 0.09865000000 0.09865000000 
WPOWER          !     >  0.38700000000 0.45400000000 0.57800000000 0.71400000000 0.83900000000 0.95300000000 1.05200000000 1.13100000000 1.19500000000 1.24300000000 1.43300000000 1.33200000000 1.35400000000 1.36000000000 1.36700000000 1.38000000000 1.39200000000 1.36900000000 1.34500000000 1.30300000000 1.22400000000 1.17000000000 1.11300000000 1.05600000000 0.99700000000 0.94700000000 0.87500000000 0.82800000000 0.78400000000 0.74700000000 0.70500000000 0.66600000000 0.61400000000 0.54800000000 0.48200000000 0.42700000000 0.41000000000 
TIN             !     >  548.97881092680 
HOUT            !     >  1914796.52827824932 
XOUT            !     >  0.43000000000 
ELEV            !     >  2.85000000000 3.00000000000 3.15000000000 3.30000000000 3.45000000000 3.55000000000 3.65000000000 
STEAMFLOW       !     >  0.09942661066 0.10335914884 0.10698693519 0.11016538250 0.11285940344 0.11438096996 0.11583764720 
FILMFLOW        !     >  0.01583333333 0.01416666667 0.01333333333 0.01166666667 0.01083333333 0.01083333333 0.01083333333 
DROPFLOW        !     >  0.15413162606 0.15186575454 0.14907130152 0.14755952088 0.14569883327 0.14417726675 0.14272058951 
END
