TESTID          !     >  inlet_M750_X76
TIME            !     >  0.00000000000 
PRESSURE        !     >  7000000.00000000000 
MFLOW           !     >  0.11545353002 
POWER           !     >  138163.39698699032 
HIN             !     >  1214735.37440622738 
WMESH           !     >  0.09865000000 0.09865000000 0.09865000000 0.09865000000 0.09865000000 0.09865000000 0.09865000000 0.09865000000 0.09865000000 0.09865000000 0.09865000000 0.09865000000 0.09865000000 0.09865000000 0.09865000000 0.09865000000 0.09865000000 0.09865000000 0.09865000000 0.09865000000 0.09865000000 0.09865000000 0.09865000000 0.09865000000 0.09865000000 0.09865000000 0.09865000000 0.09865000000 0.09865000000 0.09865000000 0.09865000000 0.09865000000 0.09865000000 0.09865000000 0.09865000000 0.09865000000 0.09865000000 
WPOWER          !     >  0.38700000000 0.45400000000 0.57800000000 0.71400000000 0.83900000000 0.95300000000 1.05200000000 1.13100000000 1.19500000000 1.24300000000 1.43300000000 1.33200000000 1.35400000000 1.36000000000 1.36700000000 1.38000000000 1.39200000000 1.36900000000 1.34500000000 1.30300000000 1.22400000000 1.17000000000 1.11300000000 1.05600000000 0.99700000000 0.94700000000 0.87500000000 0.82800000000 0.78400000000 0.74700000000 0.70500000000 0.66600000000 0.61400000000 0.54800000000 0.48200000000 0.42700000000 0.41000000000 
TIN             !     >  548.97881092680 
HOUT            !     >  2411436.73956798995 
XOUT            !     >  0.76000000000 
ELEV            !     >  2.85000000000 3.00000000000 3.15000000000 3.30000000000 3.45000000000 3.55000000000 3.65000000000 
STEAMFLOW       !     >  0.07572125509 0.07860227307 0.08126002673 0.08358858998 0.08556225747 0.08667697278 0.08774414954 
FILMFLOW        !     >  0.01083333333 0.00916666667 0.00750000000 0.00666666667 0.00583333333 0.00583333333 0.00500000000 
DROPFLOW        !     >  0.02889894160 0.02768459028 0.02669350329 0.02519827337 0.02405793921 0.02294322390 0.02270938048 
END
