TESTID          !     >  middle_M750_X65
TIME            !     >  0.00000000000 
PRESSURE        !     >  7000000.00000000000 
MFLOW           !     >  0.11545353002 
POWER           !     >  119050.44180599246 
HIN             !     >  1214735.37440622738 
WMESH           !     >  0.09865000000 0.09865000000 0.09865000000 0.09865000000 0.09865000000 0.09865000000 0.09865000000 0.09865000000 0.09865000000 0.09865000000 0.09865000000 0.09865000000 0.09865000000 0.09865000000 0.09865000000 0.09865000000 0.09865000000 0.09865000000 0.09865000000 0.09865000000 0.09865000000 0.09865000000 0.09865000000 0.09865000000 0.09865000000 0.09865000000 0.09865000000 0.09865000000 0.09865000000 0.09865000000 0.09865000000 0.09865000000 0.09865000000 0.09865000000 0.09865000000 0.09865000000 0.09865000000 
WPOWER          !     >  0.47900000000 0.49000000000 0.51100000000 0.54100000000 0.58000000000 0.63300000000 0.70000000000 0.78300000000 0.88000000000 1.03900000000 1.15500000000 1.26900000000 1.39600000000 1.52000000000 1.63800000000 1.70500000000 1.71900000000 1.72100000000 1.71800000000 1.70400000000 1.66400000000 1.60000000000 1.48600000000 1.35500000000 1.21800000000 1.08100000000 0.94800000000 0.83300000000 0.74100000000 0.66400000000 0.60200000000 0.55700000000 0.52300000000 0.49300000000 0.47700000000 0.46200000000 0.48000000000 
TIN             !     >  548.97881092680 
HOUT            !     >  2245890.00247140974 
XOUT            !     >  0.65000000000 
ELEV            !     >  2.85000000000 3.00000000000 3.15000000000 3.30000000000 3.45000000000 3.55000000000 3.65000000000 
STEAMFLOW       !     >  0.06585771129 0.06795922456 0.06980841103 0.07146827139 0.07302235052 0.07401471352 0.07504427946 
FILMFLOW        !     >  0.02083333333 0.01833333333 0.01583333333 0.01500000000 0.01333333333 0.01416666667 0.01333333333 
DROPFLOW        !     >  0.02876248540 0.02916097213 0.02981178566 0.02898525863 0.02909784616 0.02727214984 0.02707591723 
END
