TESTID          !     >  middle_M1250_X45
TIME            !     >  0.00000000000 
PRESSURE        !     >  7000000.00000000000 
MFLOW           !     >  0.19242255003 
POWER           !     >  140499.35700696360 
HIN             !     >  1214735.37440622738 
WMESH           !     >  0.09865000000 0.09865000000 0.09865000000 0.09865000000 0.09865000000 0.09865000000 0.09865000000 0.09865000000 0.09865000000 0.09865000000 0.09865000000 0.09865000000 0.09865000000 0.09865000000 0.09865000000 0.09865000000 0.09865000000 0.09865000000 0.09865000000 0.09865000000 0.09865000000 0.09865000000 0.09865000000 0.09865000000 0.09865000000 0.09865000000 0.09865000000 0.09865000000 0.09865000000 0.09865000000 0.09865000000 0.09865000000 0.09865000000 0.09865000000 0.09865000000 0.09865000000 0.09865000000 
WPOWER          !     >  0.47900000000 0.49000000000 0.51100000000 0.54100000000 0.58000000000 0.63300000000 0.70000000000 0.78300000000 0.88000000000 1.03900000000 1.15500000000 1.26900000000 1.39600000000 1.52000000000 1.63800000000 1.70500000000 1.71900000000 1.72100000000 1.71800000000 1.70400000000 1.66400000000 1.60000000000 1.48600000000 1.35500000000 1.21800000000 1.08100000000 0.94800000000 0.83300000000 0.74100000000 0.66400000000 0.60200000000 0.55700000000 0.52300000000 0.49300000000 0.47700000000 0.46200000000 0.48000000000 
TIN             !     >  548.97881092680 
HOUT            !     >  1944895.93502308219 
XOUT            !     >  0.45000000000 
ELEV            !     >  2.85000000000 3.00000000000 3.15000000000 3.30000000000 3.45000000000 3.55000000000 3.65000000000 
STEAMFLOW       !     >  0.07574785860 0.07822799440 0.08041034254 0.08236925433 0.08420332664 0.08537448031 0.08658953967 
FILMFLOW        !     >  0.03083333333 0.02333333333 0.02166666667 0.02166666667 0.01833333333 0.01833333333 0.01916666667 
DROPFLOW        !     >  0.08584135810 0.09086122230 0.09034554083 0.08838662904 0.08988589006 0.08871473639 0.08666634370 
END
