TESTID          !     >  outlet_M750_X72
TIME            !     >  0.00000000000 
PRESSURE        !     >  7000000.00000000000 
MFLOW           !     >  0.11545353002 
POWER           !     >  131213.23146662745 
HIN             !     >  1214735.37440622738 
WMESH           !     >  0.09865000000 0.09865000000 0.09865000000 0.09865000000 0.09865000000 0.09865000000 0.09865000000 0.09865000000 0.09865000000 0.09865000000 0.09865000000 0.09865000000 0.09865000000 0.09865000000 0.09865000000 0.09865000000 0.09865000000 0.09865000000 0.09865000000 0.09865000000 0.09865000000 0.09865000000 0.09865000000 0.09865000000 0.09865000000 0.09865000000 0.09865000000 0.09865000000 0.09865000000 0.09865000000 0.09865000000 0.09865000000 0.09865000000 0.09865000000 0.09865000000 0.09865000000 0.09865000000 
WPOWER          !     >  0.40000000000 0.41700000000 0.46700000000 0.52700000000 0.59200000000 0.65000000000 0.69400000000 0.72900000000 0.76300000000 0.79800000000 0.83600000000 0.88500000000 0.93300000000 0.98800000000 1.04200000000 1.08900000000 1.12300000000 1.15700000000 1.19600000000 1.24300000000 1.26900000000 1.28200000000 1.29400000000 1.28300000000 1.27100000000 1.25700000000 1.23600000000 1.20400000000 1.15600000000 1.11300000000 1.06000000000 0.97800000000 0.88700000000 0.79000000000 0.67200000000 0.53700000000 0.41800000000 
TIN             !     >  548.97881092680 
HOUT            !     >  2351237.92607832421 
XOUT            !     >  0.72000000000 
ELEV            !     >  2.85000000000 3.00000000000 3.15000000000 3.30000000000 3.45000000000 3.55000000000 3.65000000000 
STEAMFLOW       !     >  0.06636422851 0.07063064984 0.07454078109 0.07787986594 0.08064679952 0.08204264065 0.08312600208 
FILMFLOW        !     >  0.01666666667 0.01416666667 0.01166666667 0.00833333333 0.00916666667 0.00500000000 0.00500000000 
DROPFLOW        !     >  0.03242263484 0.03065621351 0.02924608226 0.02924033075 0.02564006384 0.02841088936 0.02732752794 
END
