TESTID          !     >  outlet_M1750_X40
TIME            !     >  0.00000000000 
PRESSURE        !     >  7000000.00000000000 
MFLOW           !     >  0.26939157005 
POWER           !     >  176427.78370869069 
HIN             !     >  1214735.37440622738 
WMESH           !     >  0.09865000000 0.09865000000 0.09865000000 0.09865000000 0.09865000000 0.09865000000 0.09865000000 0.09865000000 0.09865000000 0.09865000000 0.09865000000 0.09865000000 0.09865000000 0.09865000000 0.09865000000 0.09865000000 0.09865000000 0.09865000000 0.09865000000 0.09865000000 0.09865000000 0.09865000000 0.09865000000 0.09865000000 0.09865000000 0.09865000000 0.09865000000 0.09865000000 0.09865000000 0.09865000000 0.09865000000 0.09865000000 0.09865000000 0.09865000000 0.09865000000 0.09865000000 0.09865000000 
WPOWER          !     >  0.40000000000 0.41700000000 0.46700000000 0.52700000000 0.59200000000 0.65000000000 0.69400000000 0.72900000000 0.76300000000 0.79800000000 0.83600000000 0.88500000000 0.93300000000 0.98800000000 1.04200000000 1.08900000000 1.12300000000 1.15700000000 1.19600000000 1.24300000000 1.26900000000 1.28200000000 1.29400000000 1.28300000000 1.27100000000 1.25700000000 1.23600000000 1.20400000000 1.15600000000 1.11300000000 1.06000000000 0.97800000000 0.88700000000 0.79000000000 0.67200000000 0.53700000000 0.41800000000 
TIN             !     >  548.97881092680 
HOUT            !     >  1869647.41816100013 
XOUT            !     >  0.40000000000 
ELEV            !     >  2.85000000000 3.00000000000 3.15000000000 3.30000000000 3.45000000000 3.55000000000 3.65000000000 
STEAMFLOW       !     >  0.08521821693 0.09095479739 0.09621231435 0.10070200898 0.10442239566 0.10629922740 0.10775590257 
FILMFLOW        !     >  0.02666666667 0.01583333333 0.01333333333 0.01250000000 0.01083333333 0.00916666667 0.01000000000 
DROPFLOW        !     >  0.15750668645 0.16260343932 0.15984592236 0.15618956107 0.15413584105 0.15392567597 0.15163566747 
END
