TESTID          !     >  outlet_M1250_X50
TIME            !     >  0.00000000000 
PRESSURE        !     >  7000000.00000000000 
MFLOW           !     >  0.19242255003 
POWER           !     >  154978.86850771957 
HIN             !     >  1214735.37440622738 
WMESH           !     >  0.09865000000 0.09865000000 0.09865000000 0.09865000000 0.09865000000 0.09865000000 0.09865000000 0.09865000000 0.09865000000 0.09865000000 0.09865000000 0.09865000000 0.09865000000 0.09865000000 0.09865000000 0.09865000000 0.09865000000 0.09865000000 0.09865000000 0.09865000000 0.09865000000 0.09865000000 0.09865000000 0.09865000000 0.09865000000 0.09865000000 0.09865000000 0.09865000000 0.09865000000 0.09865000000 0.09865000000 0.09865000000 0.09865000000 0.09865000000 0.09865000000 0.09865000000 0.09865000000 
WPOWER          !     >  0.40000000000 0.41700000000 0.46700000000 0.52700000000 0.59200000000 0.65000000000 0.69400000000 0.72900000000 0.76300000000 0.79800000000 0.83600000000 0.88500000000 0.93300000000 0.98800000000 1.04200000000 1.08900000000 1.12300000000 1.15700000000 1.19600000000 1.24300000000 1.26900000000 1.28200000000 1.29400000000 1.28300000000 1.27100000000 1.25700000000 1.23600000000 1.20400000000 1.15600000000 1.11300000000 1.06000000000 0.97800000000 0.88700000000 0.79000000000 0.67200000000 0.53700000000 0.41800000000 
TIN             !     >  548.97881092680 
HOUT            !     >  2020144.45188516402 
XOUT            !     >  0.50000000000 
ELEV            !     >  2.85000000000 3.00000000000 3.15000000000 3.30000000000 3.45000000000 3.55000000000 3.65000000000 
STEAMFLOW       !     >  0.07641293388 0.08145209908 0.08607044214 0.09001430958 0.09328239643 0.09493105547 0.09621063776 
FILMFLOW        !     >  0.02083333333 0.01500000000 0.01333333333 0.01250000000 0.01000000000 0.00916666667 0.00833333333 
DROPFLOW        !     >  0.09517628282 0.09597045095 0.09301877456 0.08990824045 0.08914015361 0.08832482790 0.08787857893 
END
