TESTID          !     >  uniform_M1750_X43
TIME            !     >  0.00000000000 
PRESSURE        !     >  7000000.00000000000 
MFLOW           !     >  0.26939157005 
POWER           !     >  188590.57336932572 
HIN             !     >  1214735.37440622738 
WMESH           !     >  0.09864000000 0.09864000000 0.09864000000 0.09864000000 0.09864000000 0.09864000000 0.09864000000 0.09864000000 0.09864000000 0.09864000000 0.09864000000 0.09864000000 0.09864000000 0.09864000000 0.09864000000 0.09864000000 0.09864000000 0.09864000000 0.09864000000 0.09864000000 0.09864000000 0.09864000000 0.09864000000 0.09864000000 0.09864000000 0.09864000000 0.09864000000 0.09864000000 0.09864000000 0.09864000000 0.09864000000 0.09864000000 0.09864000000 0.09864000000 0.09864000000 0.09864000000 0.09864000000 
WPOWER          !     >  1.00000000000 1.00000000000 1.00000000000 1.00000000000 1.00000000000 1.00000000000 1.00000000000 1.00000000000 1.00000000000 1.00000000000 1.00000000000 1.00000000000 1.00000000000 1.00000000000 1.00000000000 1.00000000000 1.00000000000 1.00000000000 1.00000000000 1.00000000000 1.00000000000 1.00000000000 1.00000000000 1.00000000000 1.00000000000 1.00000000000 1.00000000000 1.00000000000 1.00000000000 1.00000000000 1.00000000000 1.00000000000 1.00000000000 1.00000000000 1.00000000000 1.00000000000 1.00000000000 
TIN             !     >  548.97881092680 
HOUT            !     >  1914796.52827824932 
XOUT            !     >  0.43000000000 
ELEV            !     >  2.71000000000 2.86000000000 3.02000000000 3.18000000000 3.34000000000 3.49000000000 3.65000000000 
STEAMFLOW       !     >  0.08357444736 0.08872469975 0.09421830229 0.09971190484 0.10520550739 0.11035575978 NaN 
FILMFLOW        !     >  0.02500000000 0.02233333333 0.01633333333 0.01416666667 0.01083333333 0.00766666667 0.00566666667 
DROPFLOW        !     >  0.16081712269 0.15833353696 0.15883993442 0.15551299854 0.15335272932 0.15136914360 NaN 
END
