TESTID          !     >  uniform_M750_X75
TIME            !     >  0.00000000000 
PRESSURE        !     >  7000000.00000000000 
MFLOW           !     >  0.11545353002 
POWER           !     >  136425.85560689960 
HIN             !     >  1214735.37440622738 
WMESH           !     >  0.09864000000 0.09864000000 0.09864000000 0.09864000000 0.09864000000 0.09864000000 0.09864000000 0.09864000000 0.09864000000 0.09864000000 0.09864000000 0.09864000000 0.09864000000 0.09864000000 0.09864000000 0.09864000000 0.09864000000 0.09864000000 0.09864000000 0.09864000000 0.09864000000 0.09864000000 0.09864000000 0.09864000000 0.09864000000 0.09864000000 0.09864000000 0.09864000000 0.09864000000 0.09864000000 0.09864000000 0.09864000000 0.09864000000 0.09864000000 0.09864000000 0.09864000000 0.09864000000 
WPOWER          !     >  1.00000000000 1.00000000000 1.00000000000 1.00000000000 1.00000000000 1.00000000000 1.00000000000 1.00000000000 1.00000000000 1.00000000000 1.00000000000 1.00000000000 1.00000000000 1.00000000000 1.00000000000 1.00000000000 1.00000000000 1.00000000000 1.00000000000 1.00000000000 1.00000000000 1.00000000000 1.00000000000 1.00000000000 1.00000000000 1.00000000000 1.00000000000 1.00000000000 1.00000000000 1.00000000000 1.00000000000 1.00000000000 1.00000000000 1.00000000000 1.00000000000 1.00000000000 1.00000000000 
TIN             !     >  548.97881092680 
HOUT            !     >  2396387.03619557340 
XOUT            !     >  0.75000000000 
ELEV            !     >  2.26000000000 2.39000000000 2.53000000000 2.67000000000 2.81000000000 2.95000000000 3.09000000000 3.23000000000 3.37000000000 3.51000000000 3.65000000000 
STEAMFLOW       !     >  0.05207348743 0.05530240762 0.05877970629 0.06225700496 0.06573430362 0.06921160229 0.07268890096 0.07616619962 0.07964349829 0.08312079696 NaN 
FILMFLOW        !     >  0.02666666667 0.02500000000 0.02250000000 0.01916666667 0.01500000000 0.01416666667 0.01166666667 0.00916666667 0.00750000000 0.00500000000 0.00250000000 
DROPFLOW        !     >  0.03671337592 0.03515112240 0.03417382373 0.03402985840 0.03471922640 0.03207526106 0.03109796240 0.03012066373 0.02831003173 0.02733273306 NaN 
END
