TESTID          !     >  inlet_M1250_X52
TIME            !     >  0.00000000000 
PRESSURE        !     >  7000000.00000000000 
MFLOW           !     >  0.19242255003 
POWER           !     >  160770.67310802196 
HIN             !     >  1214735.37440622738 
WMESH           !     >  0.09865000000 0.09865000000 0.09865000000 0.09865000000 0.09865000000 0.09865000000 0.09865000000 0.09865000000 0.09865000000 0.09865000000 0.09865000000 0.09865000000 0.09865000000 0.09865000000 0.09865000000 0.09865000000 0.09865000000 0.09865000000 0.09865000000 0.09865000000 0.09865000000 0.09865000000 0.09865000000 0.09865000000 0.09865000000 0.09865000000 0.09865000000 0.09865000000 0.09865000000 0.09865000000 0.09865000000 0.09865000000 0.09865000000 0.09865000000 0.09865000000 0.09865000000 0.09865000000 
WPOWER          !     >  0.38700000000 0.45400000000 0.57800000000 0.71400000000 0.83900000000 0.95300000000 1.05200000000 1.13100000000 1.19500000000 1.24300000000 1.43300000000 1.33200000000 1.35400000000 1.36000000000 1.36700000000 1.38000000000 1.39200000000 1.36900000000 1.34500000000 1.30300000000 1.22400000000 1.17000000000 1.11300000000 1.05600000000 0.99700000000 0.94700000000 0.87500000000 0.82800000000 0.78400000000 0.74700000000 0.70500000000 0.66600000000 0.61400000000 0.54800000000 0.48200000000 0.42700000000 0.41000000000 
TIN             !     >  548.97881092680 
HOUT            !     >  2050243.85862999689 
XOUT            !     >  0.52000000000 
ELEV            !     >  2.85000000000 3.00000000000 3.15000000000 3.30000000000 3.45000000000 3.55000000000 3.65000000000 
STEAMFLOW       !     >  0.08606893967 0.08942137027 0.09251400446 0.09522358376 0.09752019674 0.09881730969 0.10005910548 
FILMFLOW        !     >  0.01666666667 0.01416666667 0.01250000000 0.01166666667 0.01000000000 0.01000000000 0.01000000000 
DROPFLOW        !     >  0.08968694370 0.08883451309 0.08740854557 0.08553229961 0.08490235329 0.08360524035 0.08236344455 
END
