TESTID          !     >  inlet_M750_X65
TIME            !     >  0.00000000000 
PRESSURE        !     >  7000000.00000000000 
MFLOW           !     >  0.11545353002 
POWER           !     >  119050.44180599246 
HIN             !     >  1214735.37440622738 
WMESH           !     >  0.09865000000 0.09865000000 0.09865000000 0.09865000000 0.09865000000 0.09865000000 0.09865000000 0.09865000000 0.09865000000 0.09865000000 0.09865000000 0.09865000000 0.09865000000 0.09865000000 0.09865000000 0.09865000000 0.09865000000 0.09865000000 0.09865000000 0.09865000000 0.09865000000 0.09865000000 0.09865000000 0.09865000000 0.09865000000 0.09865000000 0.09865000000 0.09865000000 0.09865000000 0.09865000000 0.09865000000 0.09865000000 0.09865000000 0.09865000000 0.09865000000 0.09865000000 0.09865000000 
WPOWER          !     >  0.38700000000 0.45400000000 0.57800000000 0.71400000000 0.83900000000 0.95300000000 1.05200000000 1.13100000000 1.19500000000 1.24300000000 1.43300000000 1.33200000000 1.35400000000 1.36000000000 1.36700000000 1.38000000000 1.39200000000 1.36900000000 1.34500000000 1.30300000000 1.22400000000 1.17000000000 1.11300000000 1.05600000000 0.99700000000 0.94700000000 0.87500000000 0.82800000000 0.78400000000 0.74700000000 0.70500000000 0.66600000000 0.61400000000 0.54800000000 0.48200000000 0.42700000000 0.41000000000 
TIN             !     >  548.97881092680 
HOUT            !     >  2245890.00247140974 
XOUT            !     >  0.65000000000 
ELEV            !     >  2.85000000000 3.00000000000 3.15000000000 3.30000000000 3.45000000000 3.55000000000 3.65000000000 
STEAMFLOW       !     >  0.06468463825 0.06716710807 0.06945719904 0.07146363844 0.07316427690 0.07412478709 0.07504433501 
FILMFLOW        !     >  0.02250000000 0.01916666667 0.01666666667 0.01583333333 0.01466666667 0.01500000000 0.01416666667 
DROPFLOW        !     >  0.02826889177 0.02911975528 0.02932966431 0.02815655825 0.02762258645 0.02632874293 0.02624252835 
END
