TESTID          !     >  middle_M1750_X40
TIME            !     >  0.00000000000 
PRESSURE        !     >  7000000.00000000000 
MFLOW           !     >  0.26939157005 
POWER           !     >  176427.78370869069 
HIN             !     >  1214735.37440622738 
WMESH           !     >  0.09865000000 0.09865000000 0.09865000000 0.09865000000 0.09865000000 0.09865000000 0.09865000000 0.09865000000 0.09865000000 0.09865000000 0.09865000000 0.09865000000 0.09865000000 0.09865000000 0.09865000000 0.09865000000 0.09865000000 0.09865000000 0.09865000000 0.09865000000 0.09865000000 0.09865000000 0.09865000000 0.09865000000 0.09865000000 0.09865000000 0.09865000000 0.09865000000 0.09865000000 0.09865000000 0.09865000000 0.09865000000 0.09865000000 0.09865000000 0.09865000000 0.09865000000 0.09865000000 
WPOWER          !     >  0.47900000000 0.49000000000 0.51100000000 0.54100000000 0.58000000000 0.63300000000 0.70000000000 0.78300000000 0.88000000000 1.03900000000 1.15500000000 1.26900000000 1.39600000000 1.52000000000 1.63800000000 1.70500000000 1.71900000000 1.72100000000 1.71800000000 1.70400000000 1.66400000000 1.60000000000 1.48600000000 1.35500000000 1.21800000000 1.08100000000 0.94800000000 0.83300000000 0.74100000000 0.66400000000 0.60200000000 0.55700000000 0.52300000000 0.49300000000 0.47700000000 0.46200000000 0.48000000000 
TIN             !     >  548.97881092680 
HOUT            !     >  1869647.41816100013 
XOUT            !     >  0.40000000000 
ELEV            !     >  2.85000000000 3.00000000000 3.15000000000 3.30000000000 3.45000000000 3.55000000000 3.65000000000 
STEAMFLOW       !     >  0.09414175429 0.09725610920 0.09999652634 0.10245637009 0.10475945047 0.10623009099 0.10775586473 
FILMFLOW        !     >  0.01750000000 0.01416666667 0.01333333333 0.01333333333 0.01083333333 0.01083333333 0.01250000000 
DROPFLOW        !     >  0.15774981575 0.15796879417 0.15606171037 0.15360186662 0.15379878624 0.15232814572 0.14913570531 
END
