TESTID          !     >  middle_M750_X74
TIME            !     >  0.00000000000 
PRESSURE        !     >  7000000.00000000000 
MFLOW           !     >  0.11545353002 
POWER           !     >  134688.31422680893 
HIN             !     >  1214735.37440622738 
WMESH           !     >  0.09865000000 0.09865000000 0.09865000000 0.09865000000 0.09865000000 0.09865000000 0.09865000000 0.09865000000 0.09865000000 0.09865000000 0.09865000000 0.09865000000 0.09865000000 0.09865000000 0.09865000000 0.09865000000 0.09865000000 0.09865000000 0.09865000000 0.09865000000 0.09865000000 0.09865000000 0.09865000000 0.09865000000 0.09865000000 0.09865000000 0.09865000000 0.09865000000 0.09865000000 0.09865000000 0.09865000000 0.09865000000 0.09865000000 0.09865000000 0.09865000000 0.09865000000 0.09865000000 
WPOWER          !     >  0.47900000000 0.49000000000 0.51100000000 0.54100000000 0.58000000000 0.63300000000 0.70000000000 0.78300000000 0.88000000000 1.03900000000 1.15500000000 1.26900000000 1.39600000000 1.52000000000 1.63800000000 1.70500000000 1.71900000000 1.72100000000 1.71800000000 1.70400000000 1.66400000000 1.60000000000 1.48600000000 1.35500000000 1.21800000000 1.08100000000 0.94800000000 0.83300000000 0.74100000000 0.66400000000 0.60200000000 0.55700000000 0.52300000000 0.49300000000 0.47700000000 0.46200000000 0.48000000000 
TIN             !     >  548.97881092680 
HOUT            !     >  2381337.33282315731 
XOUT            !     >  0.74000000000 
ELEV            !     >  2.85000000000 3.00000000000 3.15000000000 3.30000000000 3.45000000000 3.55000000000 3.65000000000 
STEAMFLOW       !     >  0.07504175955 0.07741931712 0.07951140351 0.08138929485 0.08314751007 0.08427022491 0.08543502951 
FILMFLOW        !     >  0.01083333333 0.00916666667 0.00750000000 0.00666666667 0.00583333333 0.00583333333 0.00500000000 
DROPFLOW        !     >  0.02957843714 0.02886754624 0.02844212651 0.02739756850 0.02647268662 0.02534997177 0.02501850051 
END
