TESTID          !     >  middle_M1750_X36
TIME            !     >  0.00000000000 
PRESSURE        !     >  7000000.00000000000 
MFLOW           !     >  0.26939157005 
POWER           !     >  160210.73082784409 
HIN             !     >  1214735.37440622738 
WMESH           !     >  0.09865000000 0.09865000000 0.09865000000 0.09865000000 0.09865000000 0.09865000000 0.09865000000 0.09865000000 0.09865000000 0.09865000000 0.09865000000 0.09865000000 0.09865000000 0.09865000000 0.09865000000 0.09865000000 0.09865000000 0.09865000000 0.09865000000 0.09865000000 0.09865000000 0.09865000000 0.09865000000 0.09865000000 0.09865000000 0.09865000000 0.09865000000 0.09865000000 0.09865000000 0.09865000000 0.09865000000 0.09865000000 0.09865000000 0.09865000000 0.09865000000 0.09865000000 0.09865000000 
WPOWER          !     >  0.47900000000 0.49000000000 0.51100000000 0.54100000000 0.58000000000 0.63300000000 0.70000000000 0.78300000000 0.88000000000 1.03900000000 1.15500000000 1.26900000000 1.39600000000 1.52000000000 1.63800000000 1.70500000000 1.71900000000 1.72100000000 1.71800000000 1.70400000000 1.66400000000 1.60000000000 1.48600000000 1.35500000000 1.21800000000 1.08100000000 0.94800000000 0.83300000000 0.74100000000 0.66400000000 0.60200000000 0.55700000000 0.52300000000 0.49300000000 0.47700000000 0.46200000000 0.48000000000 
TIN             !     >  548.97881092680 
HOUT            !     >  1809448.60467133485 
XOUT            !     >  0.36000000000 
ELEV            !     >  2.85000000000 3.00000000000 3.15000000000 3.30000000000 3.45000000000 3.55000000000 3.65000000000 
STEAMFLOW       !     >  0.08461755610 0.08744564284 0.08993416377 0.09216790132 0.09425928502 0.09559474584 0.09698027209 
FILMFLOW        !     >  0.03333333333 0.02833333333 0.02750000000 0.02750000000 0.02333333333 0.02000000000 0.02000000000 
DROPFLOW        !     >  0.15144068061 0.15361259387 0.15195740627 0.14972366872 0.15179895169 0.15379682421 0.15241129796 
END
