TESTID          !     >  outlet_M750_X65
TIME            !     >  0.00000000000 
PRESSURE        !     >  7000000.00000000000 
MFLOW           !     >  0.11545353002 
POWER           !     >  119050.44180599246 
HIN             !     >  1214735.37440622738 
WMESH           !     >  0.09865000000 0.09865000000 0.09865000000 0.09865000000 0.09865000000 0.09865000000 0.09865000000 0.09865000000 0.09865000000 0.09865000000 0.09865000000 0.09865000000 0.09865000000 0.09865000000 0.09865000000 0.09865000000 0.09865000000 0.09865000000 0.09865000000 0.09865000000 0.09865000000 0.09865000000 0.09865000000 0.09865000000 0.09865000000 0.09865000000 0.09865000000 0.09865000000 0.09865000000 0.09865000000 0.09865000000 0.09865000000 0.09865000000 0.09865000000 0.09865000000 0.09865000000 0.09865000000 
WPOWER          !     >  0.40000000000 0.41700000000 0.46700000000 0.52700000000 0.59200000000 0.65000000000 0.69400000000 0.72900000000 0.76300000000 0.79800000000 0.83600000000 0.88500000000 0.93300000000 0.98800000000 1.04200000000 1.08900000000 1.12300000000 1.15700000000 1.19600000000 1.24300000000 1.26900000000 1.28200000000 1.29400000000 1.28300000000 1.27100000000 1.25700000000 1.23600000000 1.20400000000 1.15600000000 1.11300000000 1.06000000000 0.97800000000 0.88700000000 0.79000000000 0.67200000000 0.53700000000 0.41800000000 
TIN             !     >  548.97881092680 
HOUT            !     >  2245890.00247140974 
XOUT            !     >  0.65000000000 
ELEV            !     >  2.85000000000 3.00000000000 3.15000000000 3.30000000000 3.45000000000 3.55000000000 3.65000000000 
STEAMFLOW       !     >  0.05983626136 0.06370720745 0.06725488970 0.07028445861 0.07279491172 0.07406136558 0.07504430499 
FILMFLOW        !     >  0.02333333333 0.01833333333 0.01666666667 0.01416666667 0.01333333333 0.01250000000 0.01250000000 
DROPFLOW        !     >  0.03228393533 0.03341298924 0.03153197366 0.03100240475 0.02932528497 0.02889216444 0.02790922503 
END
