TESTID          !     >  outlet_M1750_X36
TIME            !     >  0.00000000000 
PRESSURE        !     >  7000000.00000000000 
MFLOW           !     >  0.26939157005 
POWER           !     >  160210.73082784409 
HIN             !     >  1214735.37440622738 
WMESH           !     >  0.09865000000 0.09865000000 0.09865000000 0.09865000000 0.09865000000 0.09865000000 0.09865000000 0.09865000000 0.09865000000 0.09865000000 0.09865000000 0.09865000000 0.09865000000 0.09865000000 0.09865000000 0.09865000000 0.09865000000 0.09865000000 0.09865000000 0.09865000000 0.09865000000 0.09865000000 0.09865000000 0.09865000000 0.09865000000 0.09865000000 0.09865000000 0.09865000000 0.09865000000 0.09865000000 0.09865000000 0.09865000000 0.09865000000 0.09865000000 0.09865000000 0.09865000000 0.09865000000 
WPOWER          !     >  0.40000000000 0.41700000000 0.46700000000 0.52700000000 0.59200000000 0.65000000000 0.69400000000 0.72900000000 0.76300000000 0.79800000000 0.83600000000 0.88500000000 0.93300000000 0.98800000000 1.04200000000 1.08900000000 1.12300000000 1.15700000000 1.19600000000 1.24300000000 1.26900000000 1.28200000000 1.29400000000 1.28300000000 1.27100000000 1.25700000000 1.23600000000 1.20400000000 1.15600000000 1.11300000000 1.06000000000 0.97800000000 0.88700000000 0.79000000000 0.67200000000 0.53700000000 0.41800000000 
TIN             !     >  548.97881092680 
HOUT            !     >  1809448.60467133485 
XOUT            !     >  0.36000000000 
ELEV            !     >  2.85000000000 3.00000000000 3.15000000000 3.30000000000 3.45000000000 3.55000000000 3.65000000000 
STEAMFLOW       !     >  0.07651426073 0.08172354086 0.08649779250 0.09057479920 0.09395321192 0.09565752731 0.09698030645 
FILMFLOW        !     >  0.03333333333 0.02666666667 0.02333333333 0.02000000000 0.01916666667 0.01833333333 0.01750000000 
DROPFLOW        !     >  0.15954397598 0.16100136251 0.15956044422 0.15881677085 0.15627169145 0.15540070941 0.15491126359 
END
