TESTID          !     >  uniform_M1250_X51
TIME            !     >  0.00000000000 
PRESSURE        !     >  7000000.00000000000 
MFLOW           !     >  0.19242255003 
POWER           !     >  157874.77080787075 
HIN             !     >  1214735.37440622738 
WMESH           !     >  0.09864000000 0.09864000000 0.09864000000 0.09864000000 0.09864000000 0.09864000000 0.09864000000 0.09864000000 0.09864000000 0.09864000000 0.09864000000 0.09864000000 0.09864000000 0.09864000000 0.09864000000 0.09864000000 0.09864000000 0.09864000000 0.09864000000 0.09864000000 0.09864000000 0.09864000000 0.09864000000 0.09864000000 0.09864000000 0.09864000000 0.09864000000 0.09864000000 0.09864000000 0.09864000000 0.09864000000 0.09864000000 0.09864000000 0.09864000000 0.09864000000 0.09864000000 0.09864000000 
WPOWER          !     >  1.00000000000 1.00000000000 1.00000000000 1.00000000000 1.00000000000 1.00000000000 1.00000000000 1.00000000000 1.00000000000 1.00000000000 1.00000000000 1.00000000000 1.00000000000 1.00000000000 1.00000000000 1.00000000000 1.00000000000 1.00000000000 1.00000000000 1.00000000000 1.00000000000 1.00000000000 1.00000000000 1.00000000000 1.00000000000 1.00000000000 1.00000000000 1.00000000000 1.00000000000 1.00000000000 1.00000000000 1.00000000000 1.00000000000 1.00000000000 1.00000000000 1.00000000000 1.00000000000 
TIN             !     >  548.97881092680 
HOUT            !     >  2035194.15525758034 
XOUT            !     >  0.51000000000 
ELEV            !     >  2.59000000000 2.72000000000 2.86000000000 2.99000000000 3.12000000000 3.25000000000 3.39000000000 3.52000000000 3.65000000000 
STEAMFLOW       !     >  0.06767726483 0.07141383685 0.07543783749 0.07917440951 0.08291098153 0.08664755355 0.09067155419 0.09440812621 NaN 
FILMFLOW        !     >  0.02583333333 0.02500000000 0.02083333333 0.01866666667 0.01483333333 0.01250000000 0.00866666667 0.00750000000 0.00533333333 
DROPFLOW        !     >  0.09891195187 0.09600871319 0.09615137921 0.09458147386 0.09467823517 0.09327499648 0.09308432918 0.09051442382 NaN 
END
